SrTiO3 experiment (#2)
 1.0000000000
 3.9000000000  0.0000000000  0.0000000000
 0.0000000000  3.9000000000  0.0000000000
 0.0000000000  0.0000000000  7.8000000000
Sr Ti O
2 2 6
Direct
 0.0000000000  0.0000000000  0.0000000000
 0.0000000000  0.0000000000  0.5000000000
 0.5000000000  0.5000000000  0.2500000000
 0.5000000000  0.5000000000  0.7500000000
 0.5000000000  0.5000000000  0.0000000000
 0.5000000000  0.5000000000  0.5000000000
 0.5000000000  0.0000000000  0.2500000000
 0.5000000000  0.0000000000  0.7500000000
 0.0000000000  0.5000000000  0.2500000000
 0.0000000000  0.5000000000  0.7500000000

 0.0000000000  0.0000000000  0.0000000000
 0.0000000000  0.0000000000  0.0000000000
 0.0000000000  0.0000000000  0.0000000000
 0.0000000000  0.0000000000  0.0000000000
 0.0000000000  0.0000000000  0.0000000000 
