generated by phonopy
   1.0
     5.8353922400000000    0.0000000000000000    0.0000000000000000
    -2.9176961200000000    5.0535979207999997    0.0000000000000000
     0.0000000000000000    0.0000000000000000   27.4051130000000001
Re S
   4    8
Direct
  0.0000000000000000  0.0000000000000000  0.5000000000000000
  0.5000000000000000  0.0000000000000000  0.5000000000000000
  0.0000000000000000  0.5000000000000000  0.5000000000000000
  0.5000000000000000  0.5000000000000000  0.5000000000000000
  0.1666666666666667  0.3333333333333333  0.5585813493416356
  0.6666666666666666  0.3333333333333333  0.5585813493416356
  0.1666666666666667  0.8333333333333333  0.5585813493416356
  0.6666666666666666  0.8333333333333333  0.5585813493416356
  0.3333333333333333  0.1666666666666667  0.4414186506583643
  0.8333333333333333  0.1666666666666667  0.4414186506583643
  0.3333333333333333  0.6666666666666666  0.4414186506583643
  0.8333333333333333  0.6666666666666666  0.4414186506583643
