ReS2 slab reorder high-sym
1.000000000000
 6.448811370340	 0.000000000000   0.000000000000
-3.224405685170  5.584834470930   0.000000000000
 0.000000000000  0.000000000000  26.089639838200
Re  S
4  8
Direct
 0.000000000000	 0.000000000000	 0.500000000000
 0.000000000000	 0.500000000000	 0.500000000000
 0.500000000000	 0.000000000000	 0.500000000000
 0.500000000000	 0.500000000000	 0.500000000000
 0.666666666667	 0.833333333333	 0.557914125356
 0.333333333333	 0.666666666667	 0.442085874644
 0.166666666667	 0.333333333333	 0.557914125356
 0.833333333333	 0.166666666667	 0.442085874644
 0.166666666667	 0.833333333333	 0.557914125356
 0.833333333333	 0.666666666667	 0.442085874644
 0.666666666667	 0.333333333333	 0.557914125356
 0.333333333333	 0.166666666667	 0.442085874644
